p tw 151 165
1 2
2 64
3 14
4 5
5 6
5 8
6 7
7 8
7 54
8 9
9 10
10 11
11 12
12 13
13 15
14 25
14 70
15 16
16 17
17 18
18 19
19 20
20 21
21 22
22 23
23 24
24 26
25 36
26 27
27 28
28 29
29 30
29 34
30 31
31 32
32 33
33 34
33 37
34 35
35 57
36 47
37 38
38 39
39 40
40 41
41 42
42 43
43 44
44 45
44 46
45 57
46 48
47 58
48 49
49 50
50 51
51 52
52 53
53 4
54 55
55 56
56 57
57 59
58 60
60 61
61 62
62 63
63 65
64 75
65 66
66 67
67 68
68 69
69 70
70 71
71 72
72 73
73 74
74 76
74 81
75 86
76 77
77 78
77 27
78 79
79 80
79 39
80 54
81 82
82 83
83 84
83 88
84 85
85 87
86 97
86 70
87 57
88 89
89 90
90 91
91 92
92 93
93 94
94 95
95 96
96 98
96 101
97 108
98 99
99 100
100 57
101 102
102 103
103 104
104 105
105 106
106 107
107 109
108 119
109 110
110 111
111 112
111 115
112 113
113 114
114 57
115 116
116 117
117 118
118 120
119 130
120 121
121 122
121 124
122 123
123 117
124 125
125 126
126 127
127 128
128 129
129 131
130 141
131 132
132 133
133 134
134 135
135 136
136 137
136 140
137 138
138 139
139 57
140 142
141 3
142 143
143 144
144 145
145 146
146 147
147 148
148 149
149 150
150 151
151 4
